dielectric 77.505
pair_style hybrid/overlay lj/sop 25.0 debye/sop 35.0 list/sop folded_pair_list.txt 20.0
pair_coeff * * list/sop
pair_coeff 4 4 debye/sop 1.0 0.1806 35.0
pair_coeff 4 5 debye/sop 1.0 0.1806 35.0
pair_coeff 4 6 debye/sop 1.0 0.1806 35.0
pair_coeff 4 7 debye/sop 1.0 0.1806 35.0
pair_coeff 4 8 debye/sop 1.0 0.1806 35.0
pair_coeff 5 5 debye/sop 1.0 0.1806 35.0
pair_coeff 5 6 debye/sop 1.0 0.1806 35.0
pair_coeff 5 7 debye/sop 1.0 0.1806 35.0
pair_coeff 5 8 debye/sop 1.0 0.1806 35.0
pair_coeff 6 6 debye/sop 1.0 0.1806 35.0
pair_coeff 6 7 debye/sop 1.0 0.1806 35.0
pair_coeff 6 8 debye/sop 1.0 0.1806 35.0
pair_coeff 7 7 debye/sop 1.0 0.1806 35.0
pair_coeff 7 8 debye/sop 1.0 0.1806 35.0
pair_coeff 8 8 debye/sop 1.0 0.1806 35.0
pair_coeff 1 1 lj/sop 1.0 0.10402 3.8
pair_coeff 1 2 lj/sop 1.0 0.13697 4.15
pair_coeff 1 3 lj/sop 1.0 0.13697 4.42
pair_coeff 1 4 lj/sop 1.0 0.13697 5.18
pair_coeff 1 5 lj/sop 1.0 0.13697 5.08
pair_coeff 1 6 lj/sop 1.0 0.13697 4.94
pair_coeff 1 7 lj/sop 1.0 0.13697 4.69
pair_coeff 1 8 lj/sop 1.0 0.13697 4.86
pair_coeff 1 9 lj/sop 1.0 0.13697 4.49
pair_coeff 1 10 lj/sop 1.0 0.13697 4.71
pair_coeff 1 11 lj/sop 1.0 0.13697 4.74
pair_coeff 1 12 lj/sop 1.0 0.13697 4.91
pair_coeff 1 13 lj/sop 1.0 0.13697 4.64
pair_coeff 1 14 lj/sop 1.0 0.13697 4.68
pair_coeff 1 15 lj/sop 1.0 0.13697 4.99
pair_coeff 1 16 lj/sop 1.0 0.13697 4.99
pair_coeff 1 17 lj/sop 1.0 0.13697 4.99
pair_coeff 1 18 lj/sop 1.0 0.13697 5.08
pair_coeff 1 19 lj/sop 1.0 0.13697 5.29
pair_coeff 1 20 lj/sop 1.0 0.13697 5.13
pair_coeff 1 21 lj/sop 1.0 0.13697 4.83
pair_coeff 2 2 lj/sop 1.0 0.16249 4.5
pair_coeff 2 3 lj/sop 1.0 0.13129 4.77
pair_coeff 2 4 lj/sop 1.0 0.10083 5.53
pair_coeff 2 5 lj/sop 1.0 0.10446 5.43
pair_coeff 2 6 lj/sop 1.0 0.08487 5.29
pair_coeff 2 7 lj/sop 1.0 0.09575 5.04
pair_coeff 2 8 lj/sop 1.0 0.0399 5.21
pair_coeff 2 9 lj/sop 1.0 0.10808 4.84
pair_coeff 2 10 lj/sop 1.0 0.12622 5.06
pair_coeff 2 11 lj/sop 1.0 0.10808 5.09
pair_coeff 2 12 lj/sop 1.0 0.08995 5.26
pair_coeff 2 13 lj/sop 1.0 0.14217 4.99
pair_coeff 2 14 lj/sop 1.0 0.12839 5.03
pair_coeff 2 15 lj/sop 1.0 0.0885 5.34
pair_coeff 2 16 lj/sop 1.0 0.10083 5.34
pair_coeff 2 17 lj/sop 1.0 0.11171 5.34
pair_coeff 2 18 lj/sop 1.0 0.10663 5.43
pair_coeff 2 19 lj/sop 1.0 0.16901 5.64
pair_coeff 2 20 lj/sop 1.0 0.13347 5.48
pair_coeff 2 21 lj/sop 1.0 0.11896 5.18
pair_coeff 3 3 lj/sop 1.0 0.16249 5.04
pair_coeff 3 4 lj/sop 1.0 0.07762 5.8
pair_coeff 3 5 lj/sop 1.0 0.08995 5.7
pair_coeff 3 6 lj/sop 1.0 0.0885 5.56
pair_coeff 3 7 lj/sop 1.0 0.07254 5.31
pair_coeff 3 8 lj/sop 1.0 0.0486 5.48
pair_coeff 3 9 lj/sop 1.0 0.09938 5.11
pair_coeff 3 10 lj/sop 1.0 0.12622 5.33
pair_coeff 3 11 lj/sop 1.0 0.08342 5.36
pair_coeff 3 12 lj/sop 1.0 0.0885 5.53
pair_coeff 3 13 lj/sop 1.0 0.17264 5.26
pair_coeff 3 14 lj/sop 1.0 0.11389 5.3
pair_coeff 3 15 lj/sop 1.0 0.18932 5.61
pair_coeff 3 16 lj/sop 1.0 0.19295 5.61
pair_coeff 3 17 lj/sop 1.0 0.16756 5.61
pair_coeff 3 18 lj/sop 1.0 0.1857 5.7
pair_coeff 3 19 lj/sop 1.0 0.19803 5.91
pair_coeff 3 20 lj/sop 1.0 0.15306 5.75
pair_coeff 3 21 lj/sop 1.0 0.1944 5.45
pair_coeff 4 4 lj/sop 1.0 0.103 6.56
pair_coeff 4 5 lj/sop 1.0 0.03627 6.46
pair_coeff 4 6 lj/sop 1.0 0.11896 6.32
pair_coeff 4 7 lj/sop 1.0 0.25388 6.07
pair_coeff 4 8 lj/sop 1.0 0.26114 6.24
pair_coeff 4 9 lj/sop 1.0 0.10446 5.87
pair_coeff 4 10 lj/sop 1.0 0.12622 6.09
pair_coeff 4 11 lj/sop 1.0 0.12259 6.12
pair_coeff 4 12 lj/sop 1.0 0.14798 6.29
pair_coeff 4 13 lj/sop 1.0 0.06891 6.02
pair_coeff 4 14 lj/sop 1.0 0.12984 6.06
pair_coeff 4 15 lj/sop 1.0 0.09357 6.37
pair_coeff 4 16 lj/sop 1.0 0.11026 6.37
pair_coeff 4 17 lj/sop 1.0 0.09575 6.37
pair_coeff 4 18 lj/sop 1.0 0.11171 6.46
pair_coeff 4 19 lj/sop 1.0 0.20021 6.67
pair_coeff 4 20 lj/sop 1.0 0.19295 6.51
pair_coeff 4 21 lj/sop 1.0 0.09575 6.21
pair_coeff 5 5 lj/sop 1.0 0.05803 6.36
pair_coeff 5 6 lj/sop 1.0 0.07979 6.22
pair_coeff 5 7 lj/sop 1.0 0.25026 5.97
pair_coeff 5 8 lj/sop 1.0 0.2829 6.14
pair_coeff 5 9 lj/sop 1.0 0.10808 5.77
pair_coeff 5 10 lj/sop 1.0 0.12622 5.99
pair_coeff 5 11 lj/sop 1.0 0.1516 6.02
pair_coeff 5 12 lj/sop 1.0 0.16249 6.19
pair_coeff 5 13 lj/sop 1.0 0.06311 5.92
pair_coeff 5 14 lj/sop 1.0 0.10446 5.96
pair_coeff 5 15 lj/sop 1.0 0.0885 6.27
pair_coeff 5 16 lj/sop 1.0 0.0972 6.27
pair_coeff 5 17 lj/sop 1.0 0.08632 6.27
pair_coeff 5 18 lj/sop 1.0 0.10663 6.36
pair_coeff 5 19 lj/sop 1.0 0.17627 6.57
pair_coeff 5 20 lj/sop 1.0 0.19803 6.41
pair_coeff 5 21 lj/sop 1.0 0.0972 6.11
pair_coeff 6 6 lj/sop 1.0 0.1857 6.08
pair_coeff 6 7 lj/sop 1.0 0.16611 5.83
pair_coeff 6 8 lj/sop 1.0 0.1458 6.0
pair_coeff 6 9 lj/sop 1.0 0.09938 5.63
pair_coeff 6 10 lj/sop 1.0 0.12622 5.85
pair_coeff 6 11 lj/sop 1.0 0.10808 5.88
pair_coeff 6 12 lj/sop 1.0 0.08632 6.05
pair_coeff 6 13 lj/sop 1.0 0.16031 5.78
pair_coeff 6 14 lj/sop 1.0 0.13492 5.82
pair_coeff 6 15 lj/sop 1.0 0.09212 6.13
pair_coeff 6 16 lj/sop 1.0 0.10808 6.13
pair_coeff 6 17 lj/sop 1.0 0.15668 6.13
pair_coeff 6 18 lj/sop 1.0 0.16031 6.22
pair_coeff 6 19 lj/sop 1.0 0.20891 6.43
pair_coeff 6 20 lj/sop 1.0 0.16394 6.27
pair_coeff 6 21 lj/sop 1.0 0.09357 5.97
pair_coeff 7 7 lj/sop 1.0 0.07762 5.58
pair_coeff 7 8 lj/sop 1.0 0.0544 5.75
pair_coeff 7 9 lj/sop 1.0 0.12477 5.38
pair_coeff 7 10 lj/sop 1.0 0.12622 5.6
pair_coeff 7 11 lj/sop 1.0 0.14798 5.63
pair_coeff 7 12 lj/sop 1.0 0.10446 5.8
pair_coeff 7 13 lj/sop 1.0 0.05803 5.53
pair_coeff 7 14 lj/sop 1.0 0.08124 5.57
pair_coeff 7 15 lj/sop 1.0 0.02902 5.88
pair_coeff 7 16 lj/sop 1.0 0.01451 5.88
pair_coeff 7 17 lj/sop 1.0 0.01451 5.88
pair_coeff 7 18 lj/sop 1.0 0.0399 5.97
pair_coeff 7 19 lj/sop 1.0 0.11534 6.18
pair_coeff 7 20 lj/sop 1.0 0.13855 6.02
pair_coeff 7 21 lj/sop 1.0 0.00725 5.72
pair_coeff 8 8 lj/sop 1.0 0.04497 5.92
pair_coeff 8 9 lj/sop 1.0 0.10808 5.55
pair_coeff 8 10 lj/sop 1.0 0.12622 5.77
pair_coeff 8 11 lj/sop 1.0 0.12767 5.8
pair_coeff 8 12 lj/sop 1.0 0.10808 5.97
pair_coeff 8 13 lj/sop 1.0 0.04352 5.7
pair_coeff 8 14 lj/sop 1.0 0.07979 5.74
pair_coeff 8 15 lj/sop 1.0 0.05803 6.05
pair_coeff 8 16 lj/sop 1.0 0.05948 6.05
pair_coeff 8 17 lj/sop 1.0 0.08342 6.05
pair_coeff 8 18 lj/sop 1.0 0.06528 6.14
pair_coeff 8 19 lj/sop 1.0 0.15306 6.35
pair_coeff 8 20 lj/sop 1.0 0.15523 6.19
pair_coeff 8 21 lj/sop 1.0 0.05223 5.89
pair_coeff 9 9 lj/sop 1.0 0.103 5.18
pair_coeff 9 10 lj/sop 1.0 0.12622 5.4
pair_coeff 9 11 lj/sop 1.0 0.10083 5.43
pair_coeff 9 12 lj/sop 1.0 0.08124 5.6
pair_coeff 9 13 lj/sop 1.0 0.11026 5.33
pair_coeff 9 14 lj/sop 1.0 0.09575 5.37
pair_coeff 9 15 lj/sop 1.0 0.06311 5.68
pair_coeff 9 16 lj/sop 1.0 0.07979 5.68
pair_coeff 9 17 lj/sop 1.0 0.06891 5.68
pair_coeff 9 18 lj/sop 1.0 0.10808 5.77
pair_coeff 9 19 lj/sop 1.0 0.11389 5.98
pair_coeff 9 20 lj/sop 1.0 0.11389 5.82
pair_coeff 9 21 lj/sop 1.0 0.08124 5.52
pair_coeff 10 10 lj/sop 1.0 0.12622 5.62
pair_coeff 10 11 lj/sop 1.0 0.12622 5.65
pair_coeff 10 12 lj/sop 1.0 0.12622 5.82
pair_coeff 10 13 lj/sop 1.0 0.12622 5.55
pair_coeff 10 14 lj/sop 1.0 0.12622 5.59
pair_coeff 10 15 lj/sop 1.0 0.12622 5.9
pair_coeff 10 16 lj/sop 1.0 0.12622 5.9
pair_coeff 10 17 lj/sop 1.0 0.12622 5.9
pair_coeff 10 18 lj/sop 1.0 0.12622 5.99
pair_coeff 10 19 lj/sop 1.0 0.12622 6.2
pair_coeff 10 20 lj/sop 1.0 0.12622 6.04
pair_coeff 10 21 lj/sop 1.0 0.12622 5.74
pair_coeff 11 11 lj/sop 1.0 0.13347 5.68
pair_coeff 11 12 lj/sop 1.0 0.13492 5.85
pair_coeff 11 13 lj/sop 1.0 0.07617 5.58
pair_coeff 11 14 lj/sop 1.0 0.103 5.62
pair_coeff 11 15 lj/sop 1.0 0.02756 5.93
pair_coeff 11 16 lj/sop 1.0 0.06166 5.93
pair_coeff 11 17 lj/sop 1.0 0.06891 5.93
pair_coeff 11 18 lj/sop 1.0 0.07399 6.02
pair_coeff 11 19 lj/sop 1.0 0.14217 6.23
pair_coeff 11 20 lj/sop 1.0 0.12477 6.07
pair_coeff 11 21 lj/sop 1.0 0.05585 5.77
pair_coeff 12 12 lj/sop 1.0 0.10083 6.02
pair_coeff 12 13 lj/sop 1.0 0.11896 5.75
pair_coeff 12 14 lj/sop 1.0 0.13492 5.79
pair_coeff 12 15 lj/sop 1.0 0.10083 6.1
pair_coeff 12 16 lj/sop 1.0 0.11171 6.1
pair_coeff 12 17 lj/sop 1.0 0.12767 6.1
pair_coeff 12 18 lj/sop 1.0 0.13347 6.19
pair_coeff 12 19 lj/sop 1.0 0.1458 6.4
pair_coeff 12 20 lj/sop 1.0 0.15886 6.24
pair_coeff 12 21 lj/sop 1.0 0.09575 5.94
pair_coeff 13 13 lj/sop 1.0 0.36704 5.48
pair_coeff 13 14 lj/sop 1.0 0.15886 5.52
pair_coeff 13 15 lj/sop 1.0 0.21254 5.83
pair_coeff 13 16 lj/sop 1.0 0.21616 5.83
pair_coeff 13 17 lj/sop 1.0 0.21399 5.83
pair_coeff 13 18 lj/sop 1.0 0.22124 5.92
pair_coeff 13 19 lj/sop 1.0 0.25896 6.13
pair_coeff 13 20 lj/sop 1.0 0.15523 5.97
pair_coeff 13 21 lj/sop 1.0 0.21761 5.67
pair_coeff 14 14 lj/sop 1.0 0.13855 5.56
pair_coeff 14 15 lj/sop 1.0 0.11751 5.87
pair_coeff 14 16 lj/sop 1.0 0.14072 5.87
pair_coeff 14 17 lj/sop 1.0 0.15523 5.87
pair_coeff 14 18 lj/sop 1.0 0.16031 5.96
pair_coeff 14 19 lj/sop 1.0 0.25751 6.17
pair_coeff 14 20 lj/sop 1.0 0.19803 6.01
pair_coeff 14 21 lj/sop 1.0 0.14072 5.71
pair_coeff 15 15 lj/sop 1.0 0.2343 6.18
pair_coeff 15 16 lj/sop 1.0 0.26839 6.18
pair_coeff 15 17 lj/sop 1.0 0.2343 6.18
pair_coeff 15 18 lj/sop 1.0 0.243 6.27
pair_coeff 15 19 lj/sop 1.0 0.243 6.48
pair_coeff 15 20 lj/sop 1.0 0.1857 6.32
pair_coeff 15 21 lj/sop 1.0 0.24881 6.02
pair_coeff 16 16 lj/sop 1.0 0.27202 6.18
pair_coeff 16 17 lj/sop 1.0 0.24881 6.18
pair_coeff 16 18 lj/sop 1.0 0.26622 6.27
pair_coeff 16 19 lj/sop 1.0 0.25243 6.48
pair_coeff 16 20 lj/sop 1.0 0.20528 6.32
pair_coeff 16 21 lj/sop 1.0 0.26984 6.02
pair_coeff 17 17 lj/sop 1.0 0.22704 6.18
pair_coeff 17 18 lj/sop 1.0 0.28653 6.27
pair_coeff 17 19 lj/sop 1.0 0.29523 6.48
pair_coeff 17 20 lj/sop 1.0 0.21761 6.32
pair_coeff 17 21 lj/sop 1.0 0.21109 6.02
pair_coeff 18 18 lj/sop 1.0 0.27347 6.36
pair_coeff 18 19 lj/sop 1.0 0.26622 6.57
pair_coeff 18 20 lj/sop 1.0 0.21399 6.41
pair_coeff 18 21 lj/sop 1.0 0.24663 6.11
pair_coeff 19 19 lj/sop 1.0 0.25896 6.78
pair_coeff 19 20 lj/sop 1.0 0.22487 6.62
pair_coeff 19 21 lj/sop 1.0 0.23793 6.32
pair_coeff 20 20 lj/sop 1.0 0.17482 6.46
pair_coeff 20 21 lj/sop 1.0 0.17482 6.16
pair_coeff 21 21 lj/sop 1.0 0.25533 5.86
